CMD:
./solvers/bin/cadical --plain --no-reduce -t 1600 ./data/cnfs//pdtpmsrotate32/pdtpmsrotate32.82.cnf

c --- [ banner ] -------------------------------------------------------------
c 
c CaDiCaL SAT Solver
c Copyright (c) 2016-2024
c A. Biere, M. Fleury, N. Froleyks, K. Fazekas, F. Pollitt, T. Faller
c JKU Linz, University of Freiburg, TU Wien
c 
c Version 2.1.3 5296d3d2a9bf48c154ab2acb5e44625776d821bf
c g++ (Gentoo 12.3.1_p20230526 p2) 12.3.1 20230526 -Wall -Wextra -O3 -DNDEBUG
c Sat Aug 9 07:26:21 PDT 2025 Linux cedar2.int.cedar.computecanada.ca 5.14.0-362.24.2.el9_3.x86_64 x86_64
c 
c --- [ limit ] --------------------------------------------------------------
c 
c setting time limit to 1600 seconds real time (due to '-t 1600')
c 
c --- [ parsing input ] ------------------------------------------------------
c 
c reading DIMACS file from './data/cnfs//pdtpmsrotate32/pdtpmsrotate32.82.cnf'
c opening file to read './data/cnfs//pdtpmsrotate32/pdtpmsrotate32.82.cnf'
c found 'p cnf 101690 295444' header
c parsed 295444 clauses in 0.05 seconds process time
c 
c --- [ options ] ------------------------------------------------------------
c 
c   --compact=false                (different from default 'true')
c   --decompose=false              (different from default 'true')
c   --deduplicate=false            (different from default 'true')
c   --elim=false                   (different from default 'true')
c   --probe=false                  (different from default 'true')
c   --reduce=false                 (different from default 'true')
c   --subsume=false                (different from default 'true')
c   --ternary=false                (different from default 'true')
c   --transred=false               (different from default 'true')
c   --vivify=false                 (different from default 'true')
c 
c --- [ solving ] ------------------------------------------------------------
c 
c time measured in process time since initialization
c 
c  seconds  reductions  redundant  irredundant
c         MB    restarts       trail       variables
c          level   conflicts       glue         remaining
c 
c *  0.05 48  0 0   0    0    0  0% 0 291156 89839 88%
c {  0.07 50  0 0   0    0    0  0% 0 291156 89839 88%
c }  0.08 50 23 0  23 1001  479 13% 4 291156 89839 88%
c [  0.08 50  0 0  23 1001  479  0% 0 291156 89839 88%
c O  0.08 50 37 0  23 1002  480 13% 2 291156 89839 88%
c i  0.15 51 2968 0  24 2109 1323 92% 3 291156 89709 88%
c i  0.15 51 2966 0  24 2110 1323 92% 3 291156 89699 88%
c i  0.15 51 2934 0  24 2122 1326 91% 3 291156 89634 88%
c i  0.15 51 2923 0  24 2126 1327 91% 3 291156 89565 88%
c i  0.15 51 2915 0  24 2129 1328 91% 3 291156 89365 88%
c i  0.15 51 2913 0  24 2130 1328 91% 3 291156 89354 88%
c ]  0.15 51 2910 0  24 2132 1328 91% 3 291156 89327 88%
c 0  0.15 51 2910 0  24 2132 1328 91% 3 291156 89327 88%
c 
c --- [ result ] -------------------------------------------------------------
c 
s UNSATISFIABLE
c 
c --- [ run-time profiling ] -------------------------------------------------
c 
c process time taken by individual solving procedures
c (percentage relative to process time for solving)
c 
c         0.10   99.86% search
c         0.07   70.43% stable
c         0.05   52.48% parse
c         0.02   19.88% lucky
c         0.01    9.53% unstable
c         0.00    0.00% simplify
c   =================================
c         0.10   65.23% solve
c 
c last line shows process time for solving
c (percentage relative to total process time)
c 
c --- [ statistics ] ---------------------------------------------------------
c 
c chronological:              1850        86.77 %  of conflicts
c conflicts:                  2132     22290.53    per second
c decisions:                 25957    271386.15    per second
c fixed:                     12363        12.16 %  of all variables
c learned:                    2121        99.48 %  per conflict
c learned_lits:              23025       100.00 %  learned literals
c minimized:                     0         0.00 %  learned literals
c shrunken:                   9305        40.41 %  learned literals
c minishrunken:               2086         9.06 %  learned literals
c otfs:                         18         0.84 %  of conflict
c propagations:             672534         7.03 M  per second
c rephased:                      1      2132.00    interval
c restarts:                     24        88.83    interval
c stabilizing:                   1        53.05 %  of conflicts
c subsumed:                    786         0.27 %  of all clauses
c strengthened:                 18         0.01 %  of all clauses
c 
c seconds are measured in process time for solving
c 
c --- [ resources ] ----------------------------------------------------------
c 
c total process time since initialization:         0.15    seconds
c total real time since initialization:            0.15    seconds
c maximum resident set size of process:           49.42    MB
c 
c --- [ shutting down ] ------------------------------------------------------
c 
c exit 20
